c ren 1 -> 1
c ren 2 -> 2
c ren 3 -> 3
c ren 4 -> 4
c ren 7 -> 5
c ren 8 -> 6
c ren 9 -> 7
c ren 13 -> 8
c ren 14 -> 9
c ren 16 -> 10
c ren 19 -> 11
c ren 20 -> 12
c ren 22 -> 13
c ren 25 -> 14
c ren 27 -> 15
c ren 30 -> 16
c ren 31 -> 17
c ren 33 -> 18
c ren 36 -> 19
c ren 38 -> 20
c ren 41 -> 21
c ren 47 -> 22
c ren 50 -> 23
c ren 52 -> 24
c ren 55 -> 25
c ren 57 -> 26
c ren 60 -> 27
c ren 61 -> 28
c ren 63 -> 29
c ren 66 -> 30
c ren 68 -> 31
c ren 71 -> 32
c ren 73 -> 33
c ren 76 -> 34
c ren 77 -> 35
c ren 79 -> 36
c ren 82 -> 37
c ren 87 -> 38
c ren 94 -> 39
c ren 98 -> 40
c ren 99 -> 41
c ren 101 -> 42
c ren 104 -> 43
c ren 108 -> 44
c ren 111 -> 45
c ren 113 -> 46
c ren 116 -> 47
c ren 118 -> 48
c ren 121 -> 49
c ren 122 -> 50
c ren 123 -> 51
c ren 126 -> 52
c ren 128 -> 53
c ren 131 -> 54
c ren 133 -> 55
c ren 136 -> 56
c ren 138 -> 57
c ren 141 -> 58
c ren 145 -> 59
c ren 148 -> 60
c ren 150 -> 61
c ren 153 -> 62
c ren 155 -> 63
c ren 158 -> 64
c ren 162 -> 65
c ren 165 -> 66
c ren 167 -> 67
c ren 170 -> 68
c ren 175 -> 69
c ren 181 -> 70
c ren 182 -> 71
c ren 184 -> 72
c ren 187 -> 73
c ren 189 -> 74
c ren 192 -> 75
c ren 196 -> 76
c ren 199 -> 77
c ren 201 -> 78
c ren 204 -> 79
c ren 208 -> 80
c ren 211 -> 81
c ren 213 -> 82
c ren 216 -> 83
c ren 218 -> 84
c ren 221 -> 85
c ren 225 -> 86
c ren 228 -> 87
c ren 230 -> 88
c ren 233 -> 89
c ren 237 -> 90
c ren 240 -> 91
c ren 242 -> 92
c ren 245 -> 93
c ren 252 -> 94
c ren 256 -> 95
c ren 260 -> 96
c ren 264 -> 97
c ren 265 -> 98
c ren 266 -> 99
c ren 269 -> 100
c ren 270 -> 101
c ren 273 -> 102
c ren 274 -> 103
c ren 277 -> 104
c ren 279 -> 105
c ren 282 -> 106
c ren 286 -> 107
c ren 289 -> 108
c ren 291 -> 109
c ren 294 -> 110
c ren 296 -> 111
c ren 299 -> 112
c ren 300 -> 113
c ren 303 -> 114
c ren 304 -> 115
c ren 307 -> 116
c ren 308 -> 117
c ren 311 -> 118
c ren 312 -> 119
c ren 315 -> 120
c ren 317 -> 121
c ren 320 -> 122
c ren 327 -> 123
c ren 332 -> 124
c ren 336 -> 125
c ren 337 -> 126
c ren 342 -> 127
c ren 347 -> 128
c ren 348 -> 129
c ren 353 -> 130
c ren 358 -> 131
c ren 361 -> 132
c ren 362 -> 133
c ren 363 -> 134
c ren 366 -> 135
c ren 367 -> 136
c ren 370 -> 137
c ren 372 -> 138
c ren 375 -> 139
c ren 379 -> 140
c ren 382 -> 141
c ren 384 -> 142
c ren 387 -> 143
c ren 389 -> 144
c ren 392 -> 145
c ren 394 -> 146
c ren 397 -> 147
c ren 399 -> 148
c ren 402 -> 149
c ren 403 -> 150
c ren 405 -> 151
c ren 408 -> 152
c ren 410 -> 153
c ren 413 -> 154
c ren 417 -> 155
c ren 420 -> 156
c ren 424 -> 157
c ren 428 -> 158
c ren 435 -> 159
c ren 439 -> 160
c ren 440 -> 161
c ren 444 -> 162
c ren 447 -> 163
c ren 449 -> 164
c ren 452 -> 165
c ren 454 -> 166
c ren 457 -> 167
c ren 461 -> 168
c ren 464 -> 169
c ren 468 -> 170
c ren 471 -> 171
c ren 472 -> 172
c ren 474 -> 173
c ren 477 -> 174
c ren 481 -> 175
p cnf 175 788
a 1 2 3 5 6 7 9 11 12 14 16 17 19 21 23 25 27 28 30 32 34 35 37 38 39 41 43 45 47 49 52 54 56 58 60 62 64 66 68 69 71 73 75 77 79 81 83 85 87 89 91 93 94 95 96 98 100 102 104 106 108 110 112 114 116 118 120 122 123 124 126 127 128 130 131 133 135 137 139 141 143 145 147 149 152 154 156 157 158 159 161 163 165 167 169 171 174 0
d 129 126 127 0
d 150 145 147 0
d 172 28 35 0
e 4 8 10 13 15 18 20 22 24 26 29 31 33 36 40 42 44 46 48 50 51 53 55 57 59 61 63 65 67 70 72 74 76 78 80 82 84 86 88 90 92 97 99 101 103 105 107 109 111 113 115 117 119 121 125 132 134 136 138 140 142 144 146 148 151 153 155 160 162 164 166 168 170 173 175 0
2 -4 0
3 -4 0
-2 -3 4 0
-4 -6 -7 70 71 -72 -74 -76 -78 -80 -82 -84 85 -86 -88 -90 -92 93 -94 -95 96 -97 0
4 -6 -7 70 71 -72 -74 -76 -78 -80 -82 83 -84 -86 -88 -90 -92 93 94 -95 -96 -97 0
4 6 70 71 -72 -74 -76 -78 -80 -82 -84 -86 -88 -90 -92 93 94 95 96 -97 0
4 6 70 -72 -74 -76 -78 -80 81 -82 -84 85 -86 -88 -90 -92 93 94 95 96 -97 0
-4 -6 -7 70 -72 -74 -76 -78 -80 81 -82 -84 85 -86 -88 -90 -92 93 -94 -95 96 -97 0
7 -95 97 0
4 7 70 -72 -74 -76 -78 -80 81 -82 -84 85 -86 -88 -90 -92 93 94 95 96 -97 0
-1 4 8 0
-4 6 70 -72 -74 -76 -78 -80 81 -82 -84 85 -86 -88 -90 -92 93 -94 95 -96 -97 0
-4 6 70 71 -72 -74 -76 -78 -80 -82 -84 85 -86 -88 -90 -92 93 -94 95 -96 -97 0
1 -4 8 0
1 5 -9 -10 0
-1 -5 9 10 0
1 -5 9 -10 0
-1 5 -9 10 0
-1 5 9 -10 0
-1 -5 -9 -10 0
1 5 9 10 0
1 -5 -9 10 0
10 40 0
8 -10 -13 -14 -15 -16 -18 -20 -22 -24 -26 -29 -31 -32 34 -36 -37 -38 39 -40 0
2 -11 -13 0
-2 -11 -12 13 0
12 98 99 0
-2 11 -12 -13 0
2 98 99 0
2 -98 -99 0
-2 -12 -98 99 0
13 40 0
8 -15 -18 -19 -20 -21 -22 -32 -33 0
3 -14 -15 0
-3 -6 -14 15 0
6 100 101 0
-3 -6 14 -15 0
3 100 101 0
3 -100 -101 0
-3 -6 -100 101 0
15 40 0
8 -10 -13 14 -15 -18 19 -20 -22 -24 -26 -29 -31 -32 -33 34 -37 38 -39 -40 0
7 -16 -18 0
-7 -16 -17 18 0
17 102 103 0
-7 16 -17 -18 0
7 102 103 0
7 -102 -103 0
-7 -17 -102 103 0
18 40 0
8 -10 -13 -15 16 -18 -20 -22 -24 -26 -29 -31 -32 -33 -36 -37 38 -39 -40 0
14 16 -19 -20 0
-14 -16 19 20 0
14 -16 19 -20 0
-14 16 -19 20 0
-14 16 19 -20 0
-14 -16 -19 -20 0
14 16 19 20 0
14 -16 -19 20 0
20 40 0
8 -10 -13 14 -15 -18 -20 -22 -24 -26 -29 -31 -32 -33 34 -36 -37 38 -39 -40 0
1 -21 -22 0
5 21 22 0
5 -21 -22 0
-1 -5 -21 22 0
1 21 22 0
-1 -5 21 -22 0
22 40 0
8 -10 -13 -15 16 -18 -20 21 -24 -26 -29 -31 -32 -33 -36 -37 38 -39 -40 0
19 21 -23 -24 0
-19 -21 23 24 0
19 -21 23 -24 0
-19 21 -23 24 0
-19 21 23 -24 0
-19 -21 -23 -24 0
19 21 23 24 0
19 -21 -23 24 0
24 40 0
11 23 -25 -26 0
-11 -23 25 26 0
11 -23 25 -26 0
-11 23 -25 26 0
-11 23 25 -26 0
-11 -23 -25 -26 0
11 23 25 26 0
11 -23 -25 26 0
26 40 0
8 -10 -13 -15 -18 -19 -20 -21 -22 -24 -26 -29 -31 -33 -34 -36 -37 -38 39 -40 0
2 -27 -29 0
-2 -27 -28 29 0
28 112 113 0
-2 27 -28 -29 0
2 112 113 0
2 -112 -113 0
-2 -28 -112 113 0
29 40 0
6 -30 -31 0
-6 -12 -30 31 0
12 114 115 0
-6 -12 30 -31 0
6 114 115 0
6 -114 -115 0
-6 -12 -114 115 0
31 40 0
8 -10 -13 -15 16 -18 19 -20 -22 -24 -26 -29 -31 32 -34 -36 -37 38 -39 -40 0
3 -32 -33 0
-3 -17 -32 33 0
17 116 117 0
-3 -17 32 -33 0
3 116 117 0
3 -116 -117 0
-3 -17 -116 117 0
33 40 0
8 -10 -13 14 -15 -18 -20 21 -22 -24 -26 -29 -31 32 -33 -34 -36 -37 38 -39 -40 0
7 -34 -36 0
-7 -34 -35 36 0
35 118 119 0
-7 34 -35 -36 0
7 118 119 0
7 -118 -119 0
-7 -35 -118 119 0
36 40 0
8 -10 -13 -15 16 -18 -20 21 -22 -24 -26 -29 -31 -33 -34 -36 -37 38 -39 -40 0
6 -100 -101 0
8 -10 -13 -15 -18 19 -20 -22 -24 -26 -29 -31 32 -33 34 -36 37 38 39 -40 0
8 -10 -13 -18 -19 -20 -21 -22 -24 -26 -29 -31 32 -33 34 -36 37 -38 -39 -40 0
8 -10 -13 -14 -15 -16 -20 -22 -24 -26 -29 -31 -32 -33 -34 -36 37 -38 -39 -40 0
-32 -34 -37 40 0
8 -10 -13 14 -15 -18 -20 -22 -24 -26 -29 -31 -32 -33 -34 -36 37 38 39 -40 0
-8 40 0
8 -10 -13 14 -15 -18 -20 21 -22 -24 -26 -29 -31 32 -33 34 -36 37 38 39 -40 0
14 -38 40 0
-32 34 37 40 0
17 -102 -103 0
-19 -21 38 40 0
12 -98 -99 0
16 19 -38 40 0
32 -34 37 40 0
16 21 -38 40 0
8 -10 -13 -15 16 -18 -20 21 -22 -24 -26 -29 -31 32 -33 34 -36 37 38 39 -40 0
28 -112 -113 0
37 38 -39 40 0
35 -118 -119 0
37 -38 39 40 0
-14 -16 38 40 0
-37 38 39 40 0
17 -116 -117 0
-37 -38 -39 40 0
12 -114 -115 0
30 39 -41 -42 0
-30 -39 41 42 0
30 -39 41 -42 0
-30 39 -41 42 0
-30 39 41 -42 0
-30 -39 -41 -42 0
30 39 41 42 0
30 -39 -41 42 0
42 70 0
-27 40 -42 -44 -45 -46 -48 -49 -51 -53 -55 -57 -59 -61 -63 -65 66 -67 -68 -69 -70 0
11 -43 -44 0
23 43 44 0
23 -43 -44 0
-11 -23 -43 44 0
11 43 44 0
-11 -23 43 -44 0
44 70 0
41 43 -45 -46 0
-41 -43 45 46 0
41 -43 45 -46 0
-41 43 -45 46 0
-41 43 45 -46 0
-41 -43 -45 -46 0
41 43 45 46 0
41 -43 -45 46 0
46 70 0
27 40 -42 -44 -46 -48 -49 -51 -53 -55 -57 -59 -61 -63 -65 66 -67 -68 69 -70 0
27 45 -47 -48 0
-27 -45 47 48 0
27 -45 47 -48 0
-27 45 -47 48 0
-27 45 47 -48 0
-27 -45 -47 -48 0
27 45 47 48 0
27 -45 -47 48 0
48 70 0
40 -42 -44 45 -46 -48 -49 -51 -53 -55 -57 -59 -61 -63 -65 66 -67 -68 69 -70 0
6 -50 0
28 -50 0
-6 -28 50 0
-49 -50 51 0
49 50 51 0
-49 50 -51 0
49 -50 -51 0
51 70 0
12 -52 -53 0
-12 -17 -52 53 0
17 133 134 0
-12 -17 52 -53 0
12 133 134 0
12 -133 -134 0
-12 -17 -133 134 0
53 70 0
3 -54 -55 0
-3 -35 -54 55 0
35 135 136 0
-3 -35 54 -55 0
3 135 136 0
3 -135 -136 0
-3 -35 -135 136 0
55 70 0
-27 40 -42 -44 -45 -46 -48 49 -51 -53 -55 -57 -59 -61 -63 -65 -66 -67 -68 -69 -70 0
54 -56 -57 0
-54 -56 57 0
-54 56 -57 0
54 56 57 0
57 70 0
32 37 -58 -59 0
-37 -38 -58 59 0
34 38 58 59 0
34 37 -58 -59 0
-32 -34 -58 59 0
34 38 -58 -59 0
32 37 58 59 0
32 38 58 59 0
-32 -34 58 -59 0
32 38 -58 -59 0
-37 -38 58 -59 0
59 70 0
27 40 -42 -44 -46 -48 49 -51 -53 -55 -57 -59 -61 -63 -65 -66 -67 -68 69 -70 0
56 58 -60 -61 0
-56 -58 60 61 0
56 -58 60 -61 0
-56 58 -60 61 0
-56 58 60 -61 0
-56 -58 -60 -61 0
56 58 60 61 0
56 -58 -60 61 0
61 70 0
40 -42 -44 45 -46 -48 49 -51 -53 -55 -57 -59 -61 -63 -65 -66 -67 -68 69 -70 0
52 60 -62 -63 0
-52 -60 62 63 0
52 -60 62 -63 0
-52 60 -62 63 0
-52 60 62 -63 0
-52 -60 -62 -63 0
52 60 62 63 0
52 -60 -62 63 0
63 70 0
30 41 -64 -65 0
-41 -43 -64 65 0
39 43 64 65 0
39 41 -64 -65 0
-30 -39 -64 65 0
39 43 -64 -65 0
30 41 64 65 0
30 43 64 65 0
-30 -39 64 -65 0
30 43 -64 -65 0
-41 -43 64 -65 0
65 70 0
62 64 -66 -67 0
-62 -64 66 67 0
62 -64 66 -67 0
-62 64 -66 67 0
-62 64 66 -67 0
-62 -64 -66 -67 0
62 64 66 67 0
62 -64 -66 67 0
67 70 0
-27 40 -42 -44 -45 -46 -48 -49 -51 -53 -55 -57 -59 -61 -63 -65 -66 -67 68 -69 -70 0
40 -42 -44 45 -46 -48 49 -51 -53 -55 -57 -59 -61 -63 -65 66 -67 68 69 -70 0
27 40 -42 -44 -46 -48 49 -51 -53 -55 -57 -59 -61 -63 -65 66 -67 68 69 -70 0
27 40 -42 -44 -46 -48 -49 -51 -53 -55 -57 -59 -61 -63 -65 -66 -67 68 69 -70 0
32 34 -37 40 0
-5 7 8 0
40 -42 -44 45 -46 -48 -49 -51 -53 -55 -57 -59 -61 -63 -65 -66 -67 68 69 -70 0
-27 40 -42 -44 -45 -46 -48 49 -51 -53 -55 -57 -59 -61 -63 -65 66 -67 68 -69 -70 0
27 -69 70 0
45 -69 70 0
-49 66 68 70 0
-4 7 70 71 -72 -74 -76 -78 -80 -82 -84 85 -86 -88 -90 -92 93 -94 95 -96 -97 0
49 -66 68 70 0
-27 -45 69 70 0
17 -133 -134 0
-40 70 0
4 7 70 71 -72 -74 -76 -78 -80 -82 -84 85 -86 -88 -90 -92 93 94 95 96 -97 0
17 -71 -72 0
-17 -28 -71 72 0
-12 28 -35 132 -134 -136 137 -138 -140 -142 -144 -146 -148 -151 -153 -155 156 -157 158 -159 -160 0
-17 -28 71 -72 0
-12 17 -35 132 -134 -136 137 -138 -140 -142 -144 -146 -148 -151 -153 -155 156 -157 158 -159 -160 0
-12 17 132 -134 -136 -137 -139 -140 -142 -144 -146 -148 -151 -153 -155 156 -157 -158 159 -160 0
-12 -17 -28 132 -134 -136 -137 -138 -139 -140 -142 -144 -146 -148 -151 -153 -155 -156 -157 -158 159 -160 0
72 97 0
4 -6 -7 70 -71 -72 -74 -76 -78 -80 -81 -82 -84 -86 -88 -90 -92 -93 94 -95 -96 -97 0
35 -135 -136 0
12 -73 -74 0
-12 -35 -73 74 0
17 35 132 -134 -136 -138 -140 -142 -144 -146 -148 -151 -153 -155 156 157 158 159 -160 0
-12 -35 73 -74 0
12 17 132 -134 -136 137 -138 -140 -142 -144 -146 -148 -151 -153 -155 156 157 158 159 -160 0
-12 17 -35 132 -134 -136 -138 139 -140 -142 -144 -146 -148 -151 -153 -155 156 -157 158 -159 -160 0
74 97 0
-4 6 70 -72 -74 -76 -78 -80 -82 -83 -84 -85 -86 -88 -90 -92 -93 -94 95 -96 -97 0
56 -75 -76 0
-56 -58 -75 76 0
58 75 76 0
1 4 5 7 -8 0
58 -75 -76 0
56 75 76 0
-1 -4 5 7 -8 0
4 7 70 71 -72 -74 -76 -78 -80 -82 83 -84 -86 -88 -90 -92 93 94 95 96 -97 0
-56 -58 75 -76 0
-4 7 70 71 -72 -74 -76 -78 -80 -82 83 -84 -86 -88 -90 -92 93 -94 95 -96 -97 0
76 97 0
-4 -6 -7 70 -72 -74 -76 -78 -80 -82 -83 -84 -85 -86 -88 -90 -92 -93 -94 -95 96 -97 0
73 75 -77 -78 0
-73 -75 77 78 0
73 -75 77 -78 0
-73 75 -77 78 0
-73 75 77 -78 0
-73 -75 -77 -78 0
73 75 77 78 0
73 -75 -77 78 0
78 97 0
4 6 70 -72 -74 -76 -78 -80 -82 -83 -84 -85 -86 -88 -90 -92 -93 94 95 96 -97 0
52 62 -79 -80 0
-62 -64 -79 80 0
60 64 79 80 0
60 62 -79 -80 0
-52 -60 -79 80 0
60 64 -79 -80 0
52 62 79 80 0
52 64 79 80 0
-52 -60 79 -80 0
52 64 -79 -80 0
-62 -64 79 -80 0
60 62 79 80 0
80 97 0
4 -6 -7 70 -72 -74 -76 -78 -80 -82 -83 -84 -85 -86 -88 -90 -92 -93 94 -95 -96 -97 0
77 79 -81 -82 0
-77 -79 81 82 0
77 -79 81 -82 0
-77 79 -81 82 0
-77 79 81 -82 0
-77 -79 -81 -82 0
77 79 81 82 0
77 -79 -81 82 0
82 97 0
-4 6 70 71 -72 -74 -76 -78 -80 -82 83 -84 -86 -88 -90 -92 93 -94 95 -96 -97 0
71 81 -83 -84 0
-71 -81 83 84 0
71 -81 83 -84 0
-71 81 -83 84 0
-71 81 83 -84 0
-71 -81 -83 -84 0
71 81 83 84 0
71 -81 -83 84 0
84 97 0
-1 -4 -5 -6 -7 -8 0
49 68 -85 -86 0
-68 -69 -85 86 0
66 69 85 86 0
66 68 -85 -86 0
-49 -66 -85 86 0
66 69 -85 -86 0
49 68 85 86 0
49 69 85 86 0
-49 -66 85 -86 0
49 69 -85 -86 0
-68 -69 85 -86 0
86 97 0
28 -87 -88 0
-28 -35 -87 88 0
-28 -35 87 -88 0
35 87 88 0
35 -87 -88 0
28 87 88 0
88 97 0
73 77 -89 -90 0
-77 -79 -89 90 0
75 79 89 90 0
75 77 -89 -90 0
-73 -75 -89 90 0
75 79 -89 -90 0
73 79 89 90 0
-73 -75 89 -90 0
73 79 -89 -90 0
-77 -79 89 -90 0
75 77 89 90 0
90 97 0
-1 -4 5 6 -8 0
87 89 -91 -92 0
-87 -89 91 92 0
87 -89 91 -92 0
-87 89 -91 92 0
-87 89 91 -92 0
-87 -89 -91 -92 0
87 89 91 92 0
87 -89 -91 92 0
92 97 0
-4 -6 -7 70 -72 -74 -76 -78 -80 81 -82 83 -84 -86 -88 -90 -92 93 -94 -95 96 -97 0
4 -6 -7 70 -72 -74 -76 -78 -80 81 -82 -84 85 -86 -88 -90 -92 93 94 -95 -96 -97 0
-6 -7 95 97 0
1 4 5 6 -8 0
81 83 -93 97 0
-5 6 8 0
71 83 -93 97 0
-4 7 70 -72 -74 -76 -78 -80 81 -82 -84 85 -86 -88 -90 -92 93 -94 95 -96 -97 0
5 -6 -7 8 0
4 -6 -7 70 71 -72 -74 -76 -78 -80 -82 -84 85 -86 -88 -90 -92 93 94 -95 -96 -97 0
1 4 -5 -6 -7 -8 0
-83 -85 93 97 0
-4 6 70 -71 -72 -74 -76 -78 -80 -81 -82 -84 -86 -88 -90 -92 -93 -94 95 -96 -97 0
-71 -81 93 97 0
-70 97 0
49 66 -68 70 0
-49 -66 -68 70 0
4 -94 97 0
71 85 -93 97 0
-4 94 97 0
6 -95 97 0
4 6 70 -71 -72 -74 -76 -78 -80 -81 -82 -84 -86 -88 -90 -92 -93 94 95 96 -97 0
81 85 -93 97 0
94 95 -96 97 0
94 -95 96 97 0
-4 -6 -7 70 -71 -72 -74 -76 -78 -80 -81 -82 -84 -86 -88 -90 -92 -93 -94 -95 96 -97 0
-94 95 96 97 0
-94 -95 -96 97 0
-2 -12 98 -99 0
11 12 13 0
-11 12 -13 0
2 11 13 0
99 125 0
97 -99 -100 -101 -102 -103 -105 -107 -109 -111 -113 114 -115 -117 -119 120 -121 -122 -123 -124 -125 0
-3 -6 100 -101 0
6 14 15 0
6 -14 -15 0
3 14 15 0
101 125 0
97 -99 -100 -101 -102 -103 -105 -107 -109 -111 -113 -114 -115 -117 -119 120 -121 -122 -123 124 -125 0
-7 -17 102 -103 0
16 17 18 0
-16 17 -18 0
7 16 18 0
103 125 0
97 -99 -100 -101 -102 -103 -105 -107 -109 -111 -113 -114 -115 -117 -119 -120 -121 -122 123 -124 -125 0
100 102 -104 -105 0
-100 -102 104 105 0
100 -102 104 -105 0
-100 102 -104 105 0
-100 102 104 -105 0
-100 -102 -104 -105 0
100 102 104 105 0
100 -102 -104 105 0
105 125 0
97 -99 -100 -101 -102 -103 -105 -107 -109 -111 -113 114 -115 -117 -119 -120 -121 -122 123 124 -125 0
94 -106 -107 0
95 106 107 0
95 -106 -107 0
-94 -95 -106 107 0
4 7 70 -71 -72 -74 -76 -78 -80 -81 -82 -84 -86 -88 -90 -92 -93 94 95 96 -97 0
94 106 107 0
-94 -95 106 -107 0
4 7 70 -72 -74 -76 -78 -80 -82 -83 -84 -85 -86 -88 -90 -92 -93 94 95 96 -97 0
-4 7 70 -72 -74 -76 -78 -80 -82 -83 -84 -85 -86 -88 -90 -92 -93 -94 95 -96 -97 0
107 125 0
97 -99 -101 -103 -104 -105 -106 -107 -109 -111 -113 114 -115 -117 -119 120 -121 -122 -123 -124 -125 0
104 106 -108 -109 0
-104 -106 108 109 0
104 -106 108 -109 0
-104 106 -108 109 0
-104 106 108 -109 0
-104 -106 -108 -109 0
104 106 108 109 0
104 -106 -108 109 0
109 125 0
97 -99 -101 -103 -104 -105 -106 -107 -109 -111 -113 -114 -115 -117 -119 120 -121 -122 -123 124 -125 0
98 108 -110 -111 0
-98 -108 110 111 0
98 -108 110 -111 0
-98 108 -110 111 0
-98 108 110 -111 0
-98 -108 -110 -111 0
98 108 110 111 0
98 -108 -110 111 0
111 125 0
97 -99 -101 -103 -104 -105 -106 -107 -109 -111 -113 -114 -115 -117 -119 -120 -121 -122 123 -124 -125 0
-2 -28 112 -113 0
27 28 29 0
-27 28 -29 0
2 27 29 0
113 125 0
97 -99 -101 -103 -104 -105 -106 -107 -109 -111 -113 114 -115 -117 -119 -120 -121 -122 123 124 -125 0
-6 -12 114 -115 0
12 30 31 0
12 -30 -31 0
6 30 31 0
115 125 0
97 -99 100 -101 -103 104 -105 -107 -109 -111 -113 114 -115 -117 -119 -120 -121 122 -123 -124 -125 0
-3 -17 116 -117 0
17 32 33 0
17 -32 -33 0
3 32 33 0
117 125 0
97 -99 100 -101 -103 -105 -107 -109 -111 -113 -114 -115 -117 -119 -120 -121 122 -123 124 -125 0
-7 -35 118 -119 0
34 35 36 0
-34 35 -36 0
7 34 36 0
119 125 0
97 -99 100 -101 -103 -105 -107 -109 -111 -113 -114 -115 -117 -119 120 -121 122 123 -124 -125 0
116 118 -120 -121 0
-116 -118 120 121 0
116 -118 120 -121 0
-116 118 -120 121 0
-116 118 120 -121 0
-116 -118 -120 -121 0
116 118 120 121 0
116 -118 -120 121 0
121 125 0
97 -99 100 -101 -103 104 -105 -107 -109 -111 -113 114 -115 -117 -119 120 -121 122 123 124 -125 0
97 -99 -101 102 -103 -105 106 -107 -109 -111 -113 -114 -115 -117 -119 -120 -121 122 -123 124 -125 0
97 -99 100 -101 -103 -105 106 -107 -109 -111 -113 114 -115 -117 -119 -120 -121 122 -123 -124 -125 0
97 -99 -101 102 -103 -105 106 -107 -109 -111 -113 114 -115 -117 -119 120 -121 122 123 124 -125 0
97 -99 -101 102 -103 104 -105 -107 -109 -111 -113 114 -115 -117 -119 -120 -121 122 -123 -124 -125 0
102 104 -122 125 0
-4 7 70 -71 -72 -74 -76 -78 -80 -81 -82 -84 -86 -88 -90 -92 -93 -94 95 -96 -97 0
100 -122 125 0
97 -99 -101 102 -103 104 -105 -107 -109 -111 -113 114 -115 -117 -119 120 -121 122 123 124 -125 0
97 -99 -101 102 -103 -105 106 -107 -109 -111 -113 114 -115 -117 -119 -120 -121 122 -123 -124 -125 0
97 -99 100 -101 -103 -105 106 -107 -109 -111 -113 114 -115 -117 -119 120 -121 122 123 124 -125 0
97 -99 -101 102 -103 104 -105 -107 -109 -111 -113 -114 -115 -117 -119 -120 -121 122 -123 124 -125 0
-104 -106 122 125 0
-97 125 0
97 -99 -101 102 -103 -105 106 -107 -109 -111 -113 -114 -115 -117 -119 120 -121 122 123 -124 -125 0
120 -122 123 125 0
97 -99 100 -101 -103 -105 106 -109 -111 -113 -114 -115 -117 -119 -120 -121 122 -123 124 -125 0
97 -99 -101 102 -103 104 -105 -107 -109 -111 -113 -114 -115 -117 -119 120 -121 122 123 -124 -125 0
28 35 132 -134 -136 137 -140 -142 -144 -146 -148 -151 -153 -155 156 157 158 159 -160 0
-100 -102 122 125 0
-120 122 123 125 0
-120 -122 -123 125 0
114 123 -124 125 0
120 122 -123 125 0
114 -123 124 125 0
-114 123 124 125 0
-114 -123 -124 125 0
102 106 -122 125 0
-126 132 0
-50 -98 112 125 0
-50 98 -112 -124 125 126 127 -128 129 130 -131 -132 0
-98 -108 112 -124 125 126 -127 -128 129 -130 131 -132 0
50 108 -112 -124 125 126 127 -128 129 130 131 -132 0
12 28 132 -134 -136 137 -138 -140 -142 -144 -146 -148 -151 -153 -155 156 157 158 159 -160 0
-50 -98 -108 -124 125 126 -127 -128 129 130 -131 -132 0
50 98 -112 124 125 126 127 -128 -129 130 131 -132 0
-98 -108 112 124 125 126 -127 -128 -129 -130 131 -132 0
50 -98 -108 -112 -124 125 126 -127 -128 129 130 131 -132 0
-50 -98 -108 124 125 126 -127 -128 -129 130 -131 -132 0
50 98 -112 -124 125 126 127 128 -129 -130 131 -132 0
50 98 -112 -124 125 126 127 -128 129 130 131 -132 0
50 -98 -108 -112 124 125 126 -127 128 129 -130 131 -132 0
-50 -98 -108 124 125 126 -127 128 129 -130 -131 -132 0
50 -98 -108 -112 124 125 126 -127 -128 -129 130 131 -132 0
-50 -98 -108 -124 125 126 -127 128 -129 -130 -131 -132 0
50 98 112 124 125 126 127 -128 -129 -130 131 -132 0
-124 128 129 132 0
50 -98 -108 -112 -124 125 126 -127 128 -129 -130 131 -132 0
28 35 132 -134 -136 -138 139 -140 -142 -144 -146 -148 -151 -153 -155 156 157 158 159 -160 0
-50 112 124 125 126 127 -128 -129 -130 -131 -132 0
112 -128 130 132 0
-98 -108 127 132 0
124 128 -129 132 0
-98 -108 112 -124 125 126 -127 128 -129 130 131 -132 0
-98 -108 112 124 125 126 -127 128 129 130 131 -132 0
-50 98 -112 -124 125 126 127 128 -129 -130 -131 -132 0
-124 -128 -129 132 0
-112 128 130 132 0
-112 -128 -130 132 0
124 -128 129 132 0
50 -131 132 0
-50 112 -124 125 126 127 -128 129 -130 -131 -132 0
50 98 112 -124 125 126 127 128 -129 130 131 -132 0
-50 131 132 0
112 128 -130 132 0
-50 98 -112 124 125 126 127 -128 -129 130 -131 -132 0
-50 112 -124 125 126 127 128 -129 130 -131 -132 0
-12 -17 133 -134 0
17 52 53 0
17 -52 -53 0
12 52 53 0
134 160 0
50 98 -112 124 125 126 127 128 129 -130 131 -132 0
-3 -35 135 -136 0
35 54 55 0
35 -54 -55 0
3 54 55 0
136 160 0
12 17 132 -134 -136 -138 139 -140 -142 -144 -146 -148 -151 -153 -155 156 157 158 159 -160 0
50 98 112 124 125 126 127 128 129 130 131 -132 0
135 -137 -138 0
-135 -137 138 0
-135 137 -138 0
135 137 138 0
138 160 0
98 -127 132 0
116 120 -139 -140 0
-120 -122 -139 140 0
118 122 139 140 0
118 120 -139 -140 0
-116 -118 -139 140 0
118 122 -139 -140 0
116 120 139 140 0
116 122 139 140 0
50 108 112 -124 125 126 127 -128 129 -130 131 -132 0
-116 -118 139 -140 0
116 122 -139 -140 0
-120 -122 139 -140 0
118 120 139 140 0
140 160 0
12 -17 -28 132 -134 -136 -137 -138 -139 -140 -142 -144 -146 -148 -151 -153 -155 -156 157 -158 -159 -160 0
50 98 112 -124 125 126 127 -128 129 -130 131 -132 0
137 139 -141 -142 0
-137 -139 141 142 0
137 -139 141 -142 0
-137 139 -141 142 0
-137 139 141 -142 0
-137 -139 -141 -142 0
137 139 141 142 0
137 -139 -141 142 0
142 160 0
12 73 74 0
50 108 112 124 125 126 127 -128 -129 -130 131 -132 0
133 141 -143 -144 0
-133 -141 143 144 0
133 -141 143 -144 0
-133 141 -143 144 0
-133 141 143 -144 0
-133 -141 -143 -144 0
133 141 143 144 0
133 -141 -143 144 0
144 160 0
12 28 132 -134 -136 -138 139 -140 -142 -144 -146 -148 -151 -153 -155 156 157 158 159 -160 0
50 108 -112 124 125 126 127 -128 -129 130 131 -132 0
124 -145 -146 0
-124 -129 -145 146 0
-50 108 -112 -124 125 126 127 128 -129 -130 -131 -132 0
-124 -129 145 -146 0
129 145 146 0
129 -145 -146 0
124 145 146 0
146 160 0
114 -147 -148 0
-114 -123 -147 148 0
50 108 112 -124 125 126 127 128 -129 130 131 -132 0
-114 -123 147 -148 0
123 147 148 0
123 -147 -148 0
114 147 148 0
148 160 0
50 108 -112 124 125 126 127 128 129 -130 131 -132 0
143 -149 150 -151 0
-143 149 -150 151 0
143 149 -150 -151 0
-143 -149 150 151 0
-143 149 150 -151 0
-143 -149 -150 -151 0
143 149 150 151 0
143 -149 -150 151 0
151 160 0
50 108 112 124 125 126 127 128 129 130 131 -132 0
131 149 -152 -153 0
-131 -149 152 153 0
131 -149 152 -153 0
-131 149 -152 153 0
-131 149 152 -153 0
-131 -149 -152 -153 0
131 149 152 153 0
131 -149 -152 153 0
153 160 0
12 28 132 -134 -136 -137 -138 -139 -140 -142 -144 -146 -148 -151 -153 -155 156 157 -158 -159 -160 0
108 -127 132 0
112 -154 -155 0
17 71 72 0
128 -154 -155 0
-112 -128 -154 155 0
-12 28 -35 132 -134 -136 -137 -138 -139 -140 -142 -144 -146 -148 -151 -153 -155 156 -157 -158 159 -160 0
112 154 155 0
-112 -128 154 -155 0
-12 28 -35 132 -134 -136 -138 139 -140 -142 -144 -146 -148 -151 -153 -155 156 -157 158 -159 -160 0
128 154 155 0
155 160 0
35 -73 -74 0
-12 -17 -28 -35 132 -134 -136 137 -138 -140 -142 -144 -146 -148 -151 -153 -155 -156 -157 158 -159 -160 0
28 -71 -72 0
12 17 132 -134 -136 -137 -138 -139 -140 -142 -144 -146 -148 -151 -153 -155 156 157 -158 -159 -160 0
-12 -17 -28 -35 132 -134 -136 -138 139 -140 -142 -144 -146 -148 -151 -153 -155 -156 -157 158 -159 -160 0
-50 108 -112 124 125 126 127 128 129 -130 -131 -132 0
12 -17 -28 132 -134 -136 137 -138 -140 -142 -144 -146 -148 -151 -153 -155 -156 157 158 159 -160 0
-17 -28 35 132 -134 -136 -138 139 -140 -142 -144 -146 -148 -151 -153 -155 -156 157 158 159 -160 0
35 73 74 0
-125 132 0
-50 112 124 125 126 127 128 129 130 -131 -132 0
28 71 72 0
-17 -28 35 132 -134 -136 137 -138 -140 -142 -144 -146 -148 -151 -153 -155 -156 157 158 159 -160 0
-50 108 -112 124 125 126 127 -128 -129 130 -131 -132 0
-50 98 -112 124 125 126 127 128 129 -130 -131 -132 0
12 -17 -28 132 -134 -136 -138 139 -140 -142 -144 -146 -148 -151 -153 -155 -156 157 158 159 -160 0
-132 160 0
-50 108 -112 -124 125 126 127 -128 129 130 -131 -132 0
50 108 -112 -124 125 126 127 128 -129 -130 131 -132 0
-143 -150 -161 162 0
141 150 161 162 0
-133 -141 -161 162 0
133 143 161 162 0
133 150 161 162 0
141 143 161 162 0
-91 -93 160 -162 -164 -166 -168 -170 172 -173 174 -175 0
-159 -161 163 164 0
-159 161 -163 164 0
159 161 163 164 0
159 -161 -163 164 0
87 93 160 -162 -164 -166 -168 -169 -170 -172 -173 -175 0
-156 -163 165 166 0
-156 163 -165 166 0
156 163 165 166 0
156 -163 -165 166 0
89 93 160 -162 -164 -166 -168 -169 -170 -172 -173 -175 0
-152 -154 -167 168 0
149 154 167 168 0
-131 -149 -167 168 0
131 152 167 168 0
131 154 167 168 0
149 152 167 168 0
87 91 160 -162 -164 -166 -168 -169 -170 -172 -173 -175 0
-159 -161 -169 170 0
158 161 169 170 0
-157 -158 -169 170 0
157 161 169 170 0
158 159 169 170 0
89 91 160 -162 -164 -166 -168 -169 -170 -172 -173 -175 0
-169 171 -172 173 0
169 -171 -172 173 0
169 171 172 173 0
-169 -171 172 173 0
-165 -167 -174 175 0
163 167 174 175 0
-156 -163 -174 175 0
156 167 174 175 0
163 165 174 175 0
9 -96 160 -162 -164 -166 -168 -170 -173 -175 0
-9 96 160 -162 -164 -166 -168 -170 -173 -175 0
25 -110 160 -162 -164 -166 -168 -170 -173 -175 0
47 -130 160 -162 -164 -166 -168 -170 -173 -175 0
-47 130 160 -162 -164 -166 -168 -170 -173 -175 0
-68 -69 -154 160 -162 -164 -166 -168 -170 -173 -175 0
-25 110 160 -162 -164 -166 -168 -170 -173 -175 0
-83 85 160 -162 -164 -165 -166 -167 -168 -170 -173 -175 0
68 -69 152 154 160 -162 -164 -166 -168 -170 -173 -175 0
-68 69 152 154 160 -162 -164 -166 -168 -170 -173 -175 0
83 -85 160 -162 -164 -165 -166 -167 -168 -170 -173 -175 0
68 69 -154 160 -162 -164 -166 -168 -170 -173 -175 0
-83 85 160 -162 -164 165 -166 167 -168 -170 -173 -175 0
-68 -69 -152 160 -162 -164 -166 -168 -170 -173 -175 0
68 69 -152 160 -162 -164 -166 -168 -170 -173 -175 0
-91 93 160 -162 -164 -166 -168 -170 -171 -173 -174 -175 0
83 85 160 -162 -164 -165 -166 167 -168 -170 -173 -175 0
-83 -85 160 -162 -164 -165 -166 167 -168 -170 -173 -175 0
91 -93 160 -162 -164 -166 -168 -170 -171 -173 -174 -175 0
83 -85 160 -162 -164 165 -166 167 -168 -170 -173 -175 0
-91 93 160 -162 -164 -166 -168 -170 171 -173 174 -175 0
-83 -85 160 -162 -164 165 -166 -167 -168 -170 -173 -175 0
83 85 160 -162 -164 165 -166 -167 -168 -170 -173 -175 0
-87 -89 160 -162 -164 -166 -168 -170 172 -173 174 -175 0
91 93 160 -162 -164 -166 -168 -170 171 -173 -174 -175 0
-91 -93 160 -162 -164 -166 -168 -170 -171 -173 174 -175 0
89 93 160 -162 -164 -166 -168 -170 -171 -173 -174 -175 0
87 91 160 -162 -164 -166 -168 -170 -171 -173 -174 -175 0
-91 -93 160 -162 -164 -166 -168 -170 171 172 -173 -175 0
91 93 160 -162 -164 -166 -168 -170 -171 -173 174 -175 0
87 93 160 -162 -164 -166 -168 -170 -171 -173 -174 -175 0
-91 -93 160 -162 -164 -166 -168 169 -170 -173 174 -175 0
-87 -89 160 -162 -164 -166 -168 -170 171 172 -173 -175 0
91 -93 160 -162 -164 -166 -168 -170 171 -173 174 -175 0
89 91 160 -162 -164 -166 -168 -170 -171 -173 -174 -175 0
-91 -93 160 -162 -164 -166 -168 -170 171 -173 -174 -175 0
-87 -89 160 -162 -164 -166 -168 169 -170 -173 174 -175 0
